Data path: /scratch/opt/lxu/CFLG/benchmarks/random_B
Instance: r_30_0.2_75.txt
Result path: /scratch/opt/lxu/CFLG/results/random_B
Solver: CPLEX
Time limit: 3600
Formulation: EF
Cover: Small
julia --project=. src/main.jl /scratch/opt/lxu/CFLG/benchmarks/random_B r_30_0.2_75.txt /scratch/opt/lxu/CFLG/results/random_B CPLEX 3600 EF Small
/scratch/opt/lxu/CFLG/benchmarks/random_B CPLEX 3600.0 /scratch/opt/lxu/CFLG/results/random_B r_30_0.2_75.txt EF Small
/scratch/opt/lxu/CFLG/benchmarks/random_B/r_30_0.2_75.txt

 read graph
data loaded


after absorb:30 30

max_piece:2
problem_graph/original graph: node: 67/30 edge: 112/75 dlt: 0.6691658563857255 break_avg_len: 0.44810213597258386 break_max_len: 0.6691651872198691elapsed CPU time: 0.050019 seconds

 model loaded

Version identifier: 12.10.0.0 | 2019-11-26 | 843d4de
CPXPARAM_ClockType                               1
CPXPARAM_Threads                                 1
CPXPARAM_TimeLimit                               3599.9499810000002
CPXPARAM_MIP_Tolerances_AbsMIPGap                1
Tried aggregator 3 times.
MIP Presolve eliminated 4080944 rows and 1275860 columns.
MIP Presolve modified 241123 coefficients.
Aggregator did 4122 substitutions.
Reduced MIP has 152230 rows, 157650 columns, and 781798 nonzeros.
Reduced MIP has 156554 binaries, 0 generals, 0 SOSs, and 0 indicators.
Presolve time = 11.90 sec. (8645.82 ticks)
Found incumbent of value 112.000000 after 13.14 sec. (9388.46 ticks)
Probing fixed 749 vars, tightened 1 bounds.
Probing time = 13.25 sec. (4666.59 ticks)
Cover probing fixed 8183 vars, tightened 28 bounds.
Tried aggregator 1 time.
Detecting symmetries...
MIP Presolve eliminated 8933 rows and 8933 columns.
MIP Presolve modified 42449 coefficients.
Reduced MIP has 143297 rows, 148717 columns, and 735926 nonzeros.
Reduced MIP has 147621 binaries, 0 generals, 0 SOSs, and 0 indicators.
Presolve time = 1.55 sec. (1182.17 ticks)
Probing time = 0.21 sec. (66.54 ticks)
Clique table members: 311507.
MIP emphasis: balance optimality and feasibility.
MIP search method: dynamic search.
Parallel mode: none, using 1 thread.
Root relaxation solution time = 124.90 sec. (64228.77 ticks)

        Nodes                                         Cuts/
   Node  Left     Objective  IInf  Best Integer    Best Bound    ItCnt     Gap

*     0+    0                          112.0000        0.0000           100.00%
      0     0       12.0000  3037      112.0000       12.0000    24278   89.29%
      0     0       12.0000  3037      112.0000     Cuts: 360    33900   89.29%
      0     0       12.0000  3037      112.0000    Cuts: 1232    45820   89.29%
      0     0       12.0000  3037      112.0000      Cuts: 46    50309   89.29%
      0     0       12.0000  3037      112.0000    Cuts: 1473    60595   89.29%
Heuristic still looking.
Heuristic still looking.
*     0+    0                           27.0000       12.0000            55.56%
      0     0  -1.00000e+75     0       27.0000       12.0000    60595   55.56%
      0     2       12.0000   472       27.0000       12.0000    60595   55.56%
Elapsed time = 586.64 sec. (376190.31 ticks, tree = 0.01 MB, solutions = 2)
      1     3       12.0000  1286       27.0000       12.0000   102064   55.56%
      2     4       12.0000  1720       27.0000       12.0000   120622   55.56%
      3     5       13.0000  2418       27.0000       12.0000   143859   55.56%
      4     6       12.0000  1222       27.0000       12.0000   155746   55.56%
      5     7       12.0000   466       27.0000       12.0000   166429   55.56%
      6     8       12.0000   466       27.0000       12.0000   167697   55.56%
      7     9       12.0000   630       27.0000       12.0000   180639   55.56%
      8    10       13.0000   622       27.0000       12.0000   202686   55.56%
      9    11       12.0323  1238       27.0000       12.0000   239942   55.56%
     10    12       13.0000  1245       27.0000       12.0000   310420   55.56%
Elapsed time = 1340.65 sec. (898870.79 ticks, tree = 3.98 MB, solutions = 2)
     11    13       12.0323   913       27.0000       12.0000   334141   55.56%
     12    14       12.0323   921       27.0000       12.0000   339264   55.56%
     13    15       12.6000   519       27.0000       12.0000   354957   55.56%
     16    18       12.0833   856       27.0000       12.0000   367622   55.56%
     17    19       13.2222   843       27.0000       12.0000   378527   55.56%
     18    20       12.1304   849       27.0000       12.0000   392328   55.56%
     19    21       13.2222   792       27.0000       12.0000   419576   55.56%
     29    31       13.0000  1416       27.0000       12.0000   445101   55.56%
     33    35       12.6000  1378       27.0000       12.0000   464325   55.56%
     34    36       12.1304   847       27.0000       12.0000   471618   55.56%
Elapsed time = 1651.88 sec. (1108704.27 ticks, tree = 17.77 MB, solutions = 2)
     35    37       12.1304   846       27.0000       12.0000   473829   55.56%
     36    38       12.1304   846       27.0000       12.0000   476823   55.56%
     37    39       12.1304   917       27.0000       12.0000   488217   55.56%
     38    40       12.2500   575       27.0000       12.0000   494572   55.56%
     39    41       12.1304   867       27.0000       12.0000   496670   55.56%
     40    42       12.1304   864       27.0000       12.0000   498078   55.56%
     42    44       12.1304   863       27.0000       12.0000   502547   55.56%
     43    45       12.1304   863       27.0000       12.0000   505267   55.56%
     44    46       12.2443  1308       27.0000       12.0000   570016   55.56%
     45    47       12.1304   865       27.0000       12.0000   573953   55.56%
Elapsed time = 1906.28 sec. (1265070.78 ticks, tree = 22.87 MB, solutions = 2)
     46    48       12.3104  1021       27.0000       12.0000   616255   55.56%
     47    49       12.1304   912       27.0000       12.0000   616813   55.56%
     48    50       12.5000  2255       27.0000       12.0000   684353   55.56%
     49    51       12.1667   956       27.0000       12.0000   696475   55.56%
     50    52       13.2500   912       27.0000       12.0000   724621   55.56%
     55    57       13.0000   624       27.0000       12.0000   739967   55.56%
     56    58       12.1667  1128       27.0000       12.0000   756245   55.56%
     57    59       12.7500   612       27.0000       12.0000   771405   55.56%
     60    62       12.1667  1120       27.0000       12.0000   771435   55.56%
     61    63       12.6667  2038       27.0000       12.0000   864338   55.56%
Elapsed time = 2982.72 sec. (1855620.02 ticks, tree = 28.47 MB, solutions = 2)
     62    64       12.1667  1215       27.0000       12.0000   874722   55.56%
     63    65       12.6154   970       27.0000       12.0000   940097   55.56%
     64    66       12.1667  1022       27.0000       12.0000   946952   55.56%
     65    67       12.1667  1098       27.0000       12.0000   955499   55.56%
     66    68       13.0000   777       27.0000       12.0000   972856   55.56%
     70    72       12.1667  1259       27.0000       12.0000   982314   55.56%
     71    73       12.3333  1314       27.0000       12.0000  1003369   55.56%
     72    74       12.1667  1262       27.0000       12.0000  1004486   55.56%
     73    75       12.5000   306       27.0000       12.0000  1015915   55.56%
     74    76       12.5000   342       27.0000       12.0000  1020203   55.56%
Elapsed time = 3567.84 sec. (2176715.14 ticks, tree = 29.32 MB, solutions = 2)
     75    77       14.0000   270       27.0000       12.0000  1024478   55.56%
     76    78       12.5714   547       27.0000       12.0000  1030226   55.56%
     77    79       13.0000   277       27.0000       12.0000  1033892   55.56%
     80    82       13.3122   412       27.0000       12.0000  1044119   55.56%
     84    86       14.0000   273       27.0000       12.0000  1046415   55.56%
     87    89       13.0000   277       27.0000       12.0000  1048468   55.56%
Advanced basis not built.
Stat(MathOptInterface.TIME_LIMIT, 27.0, 12.0, 0.555555555553498, 0.050019, 3602.8490579128265, 90, Main.CFLG.EF, "", #undef)

Clique cuts applied:  75
Implied bound cuts applied:  327
Flow cuts applied:  219
Mixed integer rounding cuts applied:  234

Root node processing (before b&c):
  Real time             =  556.62 sec. (367293.61 ticks)
Sequential b&c:
  Real time             = 3043.50 sec. (1839429.59 ticks)
                          ------------
Total (root+branch&cut) = 3600.12 sec. (2206723.20 ticks)
